c Random 4-CNF over 20 variables and 100 clauses
c Generated with `cnfgen`
c (C) 2012-2016 Massimo Lauria <lauria.massimo@gmail.com>
c https://massimolauria.github.io/cnfgen
c
c COMMAND LINE: cnfgen --output tmp-4-20-100.dimacs --output-format dimacs randkcnf 4 20 100
c
c sdimacs generated by gen-sdimacs
c
p cnf 20 100
r 0.5 1 2 3 4 5 6 7 8 9 10 0
e  11 12 13 14 15 16 17 18 19 20 0
6 8 -12 -19 0
6 8 10 -16 0
-7 -10 -13 18 0
4 -9 12 13 0
10 -14 19 -20 0
-7 -8 -15 -19 0
4 7 10 -15 0
-4 5 11 20 0
2 -8 11 12 0
-6 7 10 11 0
5 6 -7 -13 0
-6 -8 -12 -15 0
-5 10 -11 14 0
-5 16 17 -20 0
3 8 -14 -19 0
-6 10 12 -19 0
-8 11 -16 -17 0
8 11 -12 17 0
-4 -12 14 -17 0
-9 10 -13 -18 0
3 -6 11 17 0
8 -12 13 -14 0
-1 9 14 -18 0
3 -10 -14 -19 0
-6 -11 14 -16 0
3 -10 19 20 0
5 -7 11 -18 0
8 -9 13 -18 0
14 16 -17 -18 0
-3 6 8 13 0
-2 -7 8 13 0
5 -6 -9 14 0
10 -15 19 -20 0
12 14 -15 17 0
-3 -5 -11 -20 0
-2 -10 -11 -12 0
-3 -9 11 -16 0
-2 -7 -9 17 0
1 5 -19 -20 0
-9 -11 -12 -17 0
-3 6 -11 18 0
-1 -9 -12 16 0
2 5 6 -17 0
-2 -4 6 8 0
2 -6 -17 18 0
-10 -11 12 -15 0
2 -4 12 -14 0
3 -11 -12 -19 0
1 3 -12 14 0
-4 -5 11 -20 0
-2 -5 -12 20 0
-3 5 13 -19 0
3 -4 5 -10 0
5 -6 14 -15 0
1 2 11 12 0
2 -5 13 -16 0
3 -8 14 16 0
3 -8 -13 -19 0
-2 9 16 -18 0
-2 -3 4 -8 0
1 2 12 14 0
7 -9 15 -20 0
-10 -12 -13 -15 0
2 -6 -10 17 0
-6 10 -14 -15 0
13 -14 -16 19 0
2 -5 -6 -18 0
7 15 -17 18 0
2 -3 5 -16 0
8 10 11 17 0
5 11 -13 19 0
10 14 16 19 0
-7 12 -15 -19 0
9 -12 -16 17 0
1 2 8 13 0
-5 6 8 9 0
-9 -13 -14 17 0
-2 8 -10 -20 0
-2 -6 11 14 0
5 -6 -7 -16 0
1 -7 11 -20 0
10 14 15 20 0
6 8 19 20 0
-4 9 -10 17 0
1 2 -7 -19 0
1 -2 -6 14 0
-4 9 -15 -18 0
-7 12 13 14 0
10 -15 -17 18 0
-3 7 -15 20 0
-1 -7 19 -20 0
-5 6 18 20 0
-1 10 -11 -13 0
-11 12 -17 -19 0
3 9 -18 20 0
7 8 18 -19 0
-1 6 7 19 0
4 -10 -11 13 0
5 -6 18 20 0
-1 17 -19 20 0
